Copyright (C) 2013-2015, Filipe Brandao
Build (method = -2)
  #dp: 19411
  Step-3' Graph: 145 vertices and 5368 arcs (0.03s)
  Step-4' Graph: 145 vertices and 5368 arcs (0.03s)
  #V4/#V3 = 1.00
  #A4/#A3 = 1.00
Ready! (0.03s)
Optimize a model with 244 rows, 5369 columns and 15826 nonzeros
Found heuristic solution: objective 359
Presolve removed 27 rows and 29 columns
Presolve time: 0.03s
Presolved: 217 rows, 5340 columns, 15743 nonzeros
Variable types: 0 continuous, 5340 integer (220 binary)
Optimize a model with 217 rows, 5340 columns and 15743 nonzeros
Presolved: 217 rows, 5340 columns, 15743 nonzeros

Root barrier log...

Ordering time: 0.00s

Barrier statistics:
 AA' NZ     : 1.194e+04
 Factor NZ  : 1.570e+04 (roughly 2 MBytes of memory)
 Factor Ops : 1.478e+06 (less than 1 second per iteration)
 Threads    : 1

                  Objective                Residual
Iter       Primal          Dual         Primal    Dual     Compl     Time
   0   2.04441856e+04 -4.77900266e+04  3.74e+04 5.41e-02  1.55e+02     0s
   1   5.08985129e+03 -2.81177620e+04  5.14e+03 5.55e-16  2.30e+01     0s
   2   9.43874270e+02 -1.36734307e+04  3.67e+02 4.13e-03  2.66e+00     0s
   3   6.90238457e+02 -3.32570967e+03  5.72e+01 2.68e-04  4.85e-01     0s
   4   5.77918541e+02 -8.69410849e+02  2.61e+01 4.14e-05  1.66e-01     0s
   5   4.78850590e+02 -3.67553154e+02  1.63e+01 4.44e-16  9.41e-02     0s
   6   4.10947705e+02 -2.32599320e+02  1.14e+01 3.33e-16  6.98e-02     0s
   7   3.20050753e+02 -3.57157043e+01  6.70e+00 4.44e-16  3.79e-02     0s
   8   2.73484782e+02  2.91182975e+01  4.46e+00 3.33e-16  2.56e-02     0s
   9   2.31553000e+02  7.55336682e+01  2.81e+00 2.97e-16  1.62e-02     0s
  10   1.99352279e+02  8.74771103e+01  1.61e+00 3.11e-16  1.13e-02     0s
  11   1.95204726e+02  1.05027545e+02  1.44e+00 4.46e-16  9.11e-03     0s
  12   1.82472533e+02  1.25565706e+02  8.85e-01 3.61e-16  5.66e-03     0s
  13   1.75273384e+02  1.42096439e+02  5.07e-01 2.30e-16  3.24e-03     0s
  14   1.71714979e+02  1.51248309e+02  3.22e-01 2.78e-16  1.98e-03     0s
  15   1.69749992e+02  1.56172738e+02  2.22e-01 3.33e-16  1.30e-03     0s
  16   1.68520262e+02  1.57751590e+02  1.56e-01 2.34e-16  1.03e-03     0s
  17   1.68131919e+02  1.59014442e+02  1.25e-01 2.56e-16  8.66e-04     0s
  18   1.67853952e+02  1.61588530e+02  1.03e-01 4.44e-16  5.94e-04     0s
  19   1.67444345e+02  1.64161700e+02  6.89e-02 2.22e-16  3.10e-04     0s
  20   1.67158105e+02  1.64898729e+02  4.48e-02 2.25e-16  2.12e-04     0s
  21   1.67094581e+02  1.65361434e+02  3.88e-02 2.53e-16  1.63e-04     0s
  22   1.66747431e+02  1.66592294e+02  1.08e-03 3.33e-16  1.45e-05     0s
  23   1.66700259e+02  1.66689232e+02  8.71e-13 2.22e-16  1.03e-06     0s
  24   1.66700000e+02  1.66700000e+02  3.84e-13 3.51e-16  9.30e-12     0s

Barrier solved model in 24 iterations and 0.05 seconds
Optimal objective 1.66700000e+02


Root relaxation: objective 1.667000e+02, 4878 iterations, 0.09 seconds

    Nodes    |    Current Node    |     Objective Bounds      |     Work
 Expl Unexpl |  Obj  Depth IntInf | Incumbent    BestBd   Gap | It/Node Time

     0     0  166.70000    0   59  359.00000  166.70000  53.6%     -    0s
H    0     0                     167.0000000  166.70000  0.18%     -    0s

Explored 0 nodes (7231 simplex iterations) in 0.34 seconds
Thread count was 1 (of 4 available processors)

Optimal solution found (tolerance 0.00e+00)
Best objective 1.670000000000e+02, best bound 1.670000000000e+02, gap 0.0%
Preprocessing time: 0.04 seconds
Gurobi run time: 0.34 seconds
Total run time: 0.38 seconds
Objective: 167
Solution:
2 x [i=1, i=72, i=86, i=96, i=96]
1 x [i=1, i=84, i=84, i=86, i=96]
3 x [i=2, i=49]
4 x [i=3, i=48]
6 x [i=4, i=47]
2 x [i=4, i=63, i=84]
6 x [i=5, i=46]
2 x [i=6, i=49, i=98, i=98]
2 x [i=6, i=56, i=89]
4 x [i=7, i=45]
4 x [i=7, i=54, i=90]
1 x [i=7, i=58, i=92, i=94]
2 x [i=8, i=44]
1 x [i=8, i=54, i=89]
3 x [i=8, i=69, i=74]
2 x [i=8, i=71, i=72]
1 x [i=9, i=58, i=90, i=94]
4 x [i=10, i=42]
2 x [i=11, i=59, i=81]
5 x [i=12, i=40]
1 x [i=12, i=61, i=78]
1 x [i=13, i=68, i=86, i=88, i=96]
1 x [i=13, i=71, i=86, i=97]
1 x [i=14, i=57, i=80]
3 x [i=15, i=37]
2 x [i=15, i=38, i=99]
7 x [i=16, i=36]
3 x [i=17, i=54, i=80]
2 x [i=17, i=55, i=79]
1 x [i=17, i=56, i=78]
1 x [i=17, i=79, i=80, i=86, i=89]
2 x [i=18, i=74, i=78, i=89, i=92]
5 x [i=19, i=33]
1 x [i=20, i=48, i=83]
2 x [i=21, i=31]
6 x [i=22, i=30]
2 x [i=22, i=52, i=77]
1 x [i=22, i=65, i=75, i=93, i=96]
3 x [i=23, i=29]
3 x [i=23, i=34, i=95]
1 x [i=24, i=29, i=99]
4 x [i=24, i=60, i=67]
6 x [i=25, i=27]
2 x [i=26, i=26]
1 x [i=27, i=32, i=93]
1 x [i=27, i=52, i=72]
4 x [i=27, i=59, i=65]
1 x [i=27, i=27, i=98]
1 x [i=28, i=48, i=85, i=90]
1 x [i=28, i=53, i=74, i=98, i=98]
1 x [i=28, i=53, i=76, i=94]
1 x [i=28, i=75, i=78, i=89, i=90, i=91]
3 x [i=29, i=56, i=66]
2 x [i=29, i=29, i=95, i=99]
2 x [i=31, i=38, i=91, i=92]
2 x [i=31, i=63, i=66, i=91]
3 x [i=32, i=39, i=84, i=97]
3 x [i=32, i=55, i=64]
1 x [i=33, i=37, i=82]
2 x [i=35, i=35, i=82]
2 x [i=38, i=51, i=62]
2 x [i=41, i=64, i=71, i=75]
3 x [i=42, i=73, i=76, i=77, i=83]
3 x [i=43, i=52, i=56]
2 x [i=43, i=62, i=74, i=84, i=88]
1 x [i=48, i=61, i=70, i=71]
4 x [i=50, i=57, i=68, i=87, i=88]
1 x [i=52, i=65, i=73, i=77, i=83]
1 x [i=53, i=59, i=78, i=90, i=99]
1 x [i=56, i=57, i=76, i=86, i=87, i=94, i=96, i=98]
